NAME: PointSet_Angle_20_5
TYPE: TSP
COMMENT: Points chosen discrete uniformly at random out of ${0, \ldots, 500}^2$.
DIMENSION: 20
EDGE_WEIGHT_TYPE: EUC_2D
NODE_COORD_SECTION
1 65 347
2 200 412
3 368 418
4 117 336
5 309 124
6 96 137
7 76 70
8 235 113
9 415 258
10 123 394
11 307 364
12 313 188
13 301 94
14 66 465
15 221 189
16 292 286
17 282 239
18 197 150
19 156 60
20 486 465
EOF
